NAME : LPS-n25-m397
COMMENT : (Lartu-Peter-Santi Plot, instance 9197 out of 39200. 25 customers.)
TYPE : CVRP
DIMENSION : 25
EDGE_WEIGHT_TYPE : EUC_2D
CAPACITY : 114
NODE_COORD_SECTION
 1 0 72
 2 90 46
 3 62 16
 4 26 10
 5 98 10
 6 43 61
 7 15 80
 8 98 3
 9 95 46
 10 79 65
 11 96 49
 12 93 24
 13 1 99
 14 89 79
 15 29 79
 16 9 21
 17 26 96
 18 88 48
 19 34 87
 20 34 41
 21 66 3
 22 36 72
 23 37 63
 24 27 20
 25 46 88
DEMAND_SECTION
1 0
2 106
3 70
4 14
5 83
6 72
7 106
8 53
9 78
10 83
11 22
12 94
13 104
14 64
15 67
16 13
17 7
18 55
19 45
20 43
21 111
22 33
23 15
24 23
25 20
DEPOT_SECTION
 1
 -1
EOF
